
******************************************************************************
This program contains Ipopt, a library for large-scale nonlinear optimization.
 Ipopt is released as open source code under the Eclipse Public License (EPL).
         For more information visit http://projects.coin-or.org/Ipopt
******************************************************************************

This is Ipopt version 3.12.6, running with linear solver ma57.

Number of nonzeros in equality constraint Jacobian...:        8
Number of nonzeros in inequality constraint Jacobian.:     4016
Number of nonzeros in Lagrangian Hessian.............:       36

Total number of variables............................:        8
                     variables with only lower bounds:        0
                variables with lower and upper bounds:        8
                     variables with only upper bounds:        0
Total number of equality constraints.................:        1
Total number of inequality constraints...............:      502
        inequality constraints with only lower bounds:      500
   inequality constraints with lower and upper bounds:        0
        inequality constraints with only upper bounds:        2

iter    objective    inf_pr   inf_du lg(mu)  ||d||  lg(rg) alpha_du alpha_pr  ls
   0  1.2348753e+03 2.72e+00 4.04e+02  -1.0 0.00e+00    -  0.00e+00 0.00e+00   0
   1  1.3212169e+03 2.73e+00 4.01e+02  -1.0 9.70e+01    -  1.15e-02 5.29e-03f  1
   2  1.6521896e+03 2.68e+00 3.94e+02  -1.0 9.75e+01    -  3.74e-02 1.83e-02f  1
   3  1.9453663e+03 2.65e+00 3.88e+02  -1.0 9.60e+01    -  3.07e-02 1.29e-02f  1
   4  3.3758922e+03 2.48e+00 3.63e+02  -1.0 9.59e+01    -  7.70e-02 6.14e-02f  1
   5  3.4270100e+03 2.48e+00 2.99e+02  -1.0 8.41e+01    -  1.69e-02 2.30e-03h  1
   6  6.8070052e+03 2.17e+00 4.51e+02  -1.0 8.30e+01    -  7.57e-02 1.24e-01f  1
   7  5.8863587e+04 1.25e-16 2.98e+02  -1.0 7.27e+01    -  1.68e-01 1.00e+00h  1
   8  5.6054039e+04 2.78e-17 7.60e+02  -1.0 3.11e+00    -  1.68e-01 1.00e+00f  1
   9  4.5195277e+04 2.78e-17 6.22e+02  -1.0 6.59e+01    -  2.29e-02 1.92e-01f  1
iter    objective    inf_pr   inf_du lg(mu)  ||d||  lg(rg) alpha_du alpha_pr  ls
  10  4.5041670e+04 1.39e-17 5.90e+02  -1.0 1.51e+01    -  1.03e-01 7.97e-03f  1
  11  3.1010748e+04 2.78e-17 3.76e+02  -1.0 2.87e+01    -  4.87e-02 3.05e-01f  1
  12  2.6223396e+04 3.55e-17 2.94e+02  -1.0 1.13e+01    -  3.42e-01 2.75e-01f  1
  13  1.8439285e+04 1.46e-16 1.16e+02  -1.0 2.09e+01    -  2.68e-01 1.00e+00f  1
  14  1.8422519e+04 9.63e-17 2.68e+01  -1.0 2.22e+00    -  1.00e+00 2.09e-01f  2
  15  1.8383254e+04 2.47e-17 1.00e-06  -1.0 1.77e+00    -  1.00e+00 1.00e+00f  1
  16  1.8321607e+04 3.12e-17 2.02e-01  -2.5 2.47e-01    -  9.67e-01 1.00e+00f  1
  17  1.8311683e+04 1.10e-16 2.83e-08  -2.5 8.33e-01    -  1.00e+00 1.00e+00f  1
  18  1.8309508e+04 6.09e-17 1.50e-09  -3.8 1.48e-02    -  1.00e+00 1.00e+00f  1
  19  1.8309362e+04 3.98e-17 1.84e-11  -5.7 5.69e-03    -  1.00e+00 1.00e+00f  1
iter    objective    inf_pr   inf_du lg(mu)  ||d||  lg(rg) alpha_du alpha_pr  ls
  20  1.8309360e+04 7.62e-17 1.74e-13  -8.6 6.77e-04    -  1.00e+00 1.00e+00f  1

Number of Iterations....: 20

                                   (scaled)                 (unscaled)
Objective...............:   6.2107325563006846e+01    1.8309360064186010e+04
Dual infeasibility......:   1.7435731322141190e-13    5.1400874190859879e-11
Constraint violation....:   7.6199441277021481e-17    7.6199441277021481e-17
Complementarity.........:   3.3573562546040779e-09    9.8975513712841616e-07
Overall NLP error.......:   3.3573562546040779e-09    9.8975513712841616e-07


Number of objective function evaluations             = 22
Number of objective gradient evaluations             = 21
Number of equality constraint evaluations            = 22
Number of inequality constraint evaluations          = 22
Number of equality constraint Jacobian evaluations   = 21
Number of inequality constraint Jacobian evaluations = 21
Number of Lagrangian Hessian evaluations             = 20
Total CPU secs in IPOPT (w/o function evaluations)   =      0.010
Total CPU secs in NLP function evaluations           =      0.003

EXIT: Optimal Solution Found.

************************ CUTEst statistics ************************


 Package used            :  IPOPT
 Problem                 :  DUALC8    
 # variables             =               8
 # constraints           =             503
 # objective functions   =        0.4400000E+02
 # objective gradients   =        0.2200000E+02
 # objective Hessians    =        0.2100000E+02
 # Hessian-vector prdct  =        0.0000000E+00
 # constraints functions =        0.4500000E+02
 # constraints gradients =        0.2300000E+02
 # constraints Hessians  =        0.2100000E+02
 Exit code               =               0
 Final f                 =   0.1830936E+05
 Set up time             =            0.01 seconds
 Solve time              =            0.09 seconds


******************************************************************

System Time =       0.0219999999 s.
